proyfinal/src/viki/013/experimentInOfficeAgust.take6.output/5d10d98f-275a-4fad-8e6f-737f02c04ff2.als.dat
{'cnf.clauses': '118081',
 'cnf.totvars': '69608',
 'conflict literals': '20',
 'conflicts': '11',
 'decisions': '5694',
 'memused.mb': '16.73',
 'outcome': 'UNSAT',
 'propagations': '27827',
 'restarts': '1',
 'solver.msecs': 35,
 'task.msecs': 81}
