proyfinal/src/viki/013/experimentInOfficeAgust.take6.output/5d10d98f-275a-4fad-8e6f-737f02c04ff2.als.out
Reading from standard input... Use '--help' for help.
============================[ Problem Statistics ]=============================
|                                                                             |
|  Number of variables:         69608                                         |
|  Number of clauses:          118081                                         |
|  Parse time:                   0.03 s                                       |
|                                                                             |
============================[ Search Statistics ]==============================
| Conflicts |          ORIGINAL         |          LEARNT          | Progress |
|           |    Vars  Clauses Literals |    Limit  Clauses Lit/Cl |          |
===============================================================================
===============================================================================
restarts              : 1
conflicts             : 11             (308 /sec)
decisions             : 5694           (0.00 % random) (159295 /sec)
propagations          : 27827          (778487 /sec)
conflict literals     : 20             (0.00 % deleted)
Memory used           : 16.73 MB
CPU time              : 0.035745 s

UNSATISFIABLE
